\* Problem: Unknown *\

Maximize
 obj: + xp_0_0 + xp_0_1 + xp_0_2 + xp_0_3 + xp_0_4 + xp_1_0 + xp_1_1
 + xp_2_0 + xp_2_1 + xp_2_2 + xp_3_0 + xp_3_1 + xp_4_0 + xp_4_1 + xp_5_0
 + xp_5_1 + xp_6_0 + xp_7_0 + xp_8_0 + xp_9_0 + xp_10_0 + xp_11_0
 + xp_11_1 + xp_11_2 + xp_11_3 + xp_12_0 + xp_13_0 + xp_13_1 + xp_14_0
 + xp_14_1 + xp_15_0 + xp_16_0 + xp_16_1 + xp_17_0 + xp_17_1 + xp_17_2
 + xp_17_3 + xp_17_4 + xp_18_0 + xp_18_1 + xp_18_2 + xp_18_3 + xp_19_0
 + xp_19_1 + xp_19_2 + xp_20_0 + xp_20_1 + xp_20_2 + xp_20_3 + xp_21_0
 + xp_21_1 + xp_21_2 + xp_21_3 + xp_22_0 + xp_22_1 + xp_22_2 + xp_22_3
 + xp_22_4 + xp_23_0 + xp_23_1 + xp_23_2 + xp_23_3 + xp_23_4

Subject To
 r_1: 0 xp_0_0 <= 30
 r_2: + xp_23_3 + xp_22_4 + xp_18_2 + xp_2_2 <= 30
 r_3: + xp_23_4 + xp_21_2 + xp_18_3 <= 30
 r_4: + xp_17_2 + xp_15_0 <= 30
 r_5: + xp_18_0 <= 29.0077821011673
 r_6: + xp_18_1 <= 30
 r_7: + xp_20_1 <= 30
 r_8: + xp_23_2 + xp_22_3 + xp_17_4 + xp_11_1 + xp_5_1 <= 30
 r_9: + xp_11_3 + xp_3_1 <= 30
 r_10: + xp_3_0 <= 30
 r_11: + xp_18_1 + xp_11_2 <= 29.0077821011673
 r_12: + xp_11_0 <= 30
 r_13: 0 xp_0_0 <= 30
 r_14: + xp_19_2 + xp_14_0 + xp_4_1 + xp_0_3 + xp_0_1 <= 30
 r_15: + xp_21_0 + xp_19_1 <= 30
 r_16: + xp_22_1 + xp_21_1 + xp_0_4 + xp_0_2 <= 30
 r_17: + xp_0_0 <= 29.0077821011673
 r_18: + xp_21_2 + xp_4_0 <= 30
 r_19: + xp_19_0 <= 30
 r_20: + xp_21_3 + xp_14_1 <= 30
 r_21: + xp_20_2 <= 30
 r_22: + xp_21_3 <= 30
 r_23: + xp_22_4 + xp_22_3 + xp_22_2 <= 30
 r_24: + xp_23_3 + xp_23_2 + xp_17_4 + xp_0_3 <= 30
 r_25: 0 xp_0_0 <= 30
 r_26: + xp_18_2 + xp_0_1 <= 29.0077821011673
 r_27: + xp_11_1 + xp_4_1 <= 30
 r_28: + xp_19_2 <= 30
 r_29: + xp_20_3 <= 30
 r_30: + xp_2_0 <= 30
 r_31: + xp_23_4 + xp_18_3 + xp_3_1 <= 30
 r_32: + xp_2_1 <= 30
 r_33: + xp_11_3 + xp_2_2 <= 30
 r_34: + xp_19_1 <= 30
 r_35: 0 xp_0_0 <= 30
 r_36: + xp_9_0 <= 30
 r_37: + xp_21_1 + xp_13_1 <= 30
 r_38: + xp_1_1 <= 30
 r_39: + xp_17_3 + xp_0_4 <= 30
 r_40: + xp_0_2 <= 29.0077821011673
 r_41: + xp_12_0 <= 30
 r_42: + xp_21_1 <= 30
 r_43: + xp_16_0 <= 30
 r_44: + xp_23_4 + xp_23_3 + xp_23_2 + xp_23_1 + xp_16_1 <= 30
 r_45: + xp_17_4 + xp_3_1 <= 30
 r_46: + xp_18_3 + xp_0_3 <= 29.0077821011673
 r_47: + xp_16_1 + xp_13_1 <= 30
 r_48: + xp_13_0 <= 30
 r_49: + xp_17_1 <= 30
 r_50: 0 xp_0_0 <= 29.0077821011673
 r_51: + xp_1_1 <= 30
 r_52: + xp_8_0 <= 30
 r_53: + xp_1_0 <= 30
 r_54: + xp_0_4 <= 29.0077821011673
 r_55: 0 xp_0_0 <= 30
 r_56: 0 xp_0_0 <= 30
 r_57: + xp_22_1 <= 29.0077821011673
 r_58: + xp_22_2 + xp_5_0 <= 29.0077821011673
 r_59: + xp_22_0 + xp_17_3 <= 29.0077821011673
 r_60: + xp_23_1 + xp_6_0 <= 29.0077821011673
 r_61: + xp_23_0 + xp_17_1 <= 29.0077821011673
 r_62: + xp_17_0 <= 29.0077821011673
 r_63: + xp_23_4 + xp_23_3 + xp_22_4 + xp_17_2 + xp_11_2
 <= 29.0077821011673
 r_64: + xp_23_2 + xp_22_3 + xp_17_4 + xp_5_1 <= 29.0077821011673
 r_65: + xp_21_3 + xp_20_2 + xp_14_1 + xp_2_1 <= 30
 r_66: + xp_20_3 + xp_7_0 <= 30
 r_67: + xp_20_1 + xp_10_0 <= 30
 r_68: + xp_20_0 <= 30

Bounds
 0 <= xp_0_0 <= 28.856842874628
 0 <= xp_0_1 <= 8.76971535637011
 0 <= xp_0_2 <= 16.3146567976286
 0 <= xp_0_3 <= 3.33149642382723
 0 <= xp_0_4 <= 5.43821893254288
 0 <= xp_1_0 <= 21.0669531762099
 0 <= xp_1_1 <= 14.0446354508066
 0 <= xp_2_0 <= 23.2389886943054
 0 <= xp_2_1 <= 5.43821893254288
 0 <= xp_2_2 <= 5.94445185653543
 0 <= xp_3_0 <= 23.7452433711737
 0 <= xp_3_1 <= 8.42677039404609
 0 <= xp_4_0 <= 20.9036434616656
 0 <= xp_4_1 <= 5.22591086541641
 0 <= xp_5_0 <= 20.9036434616656
 0 <= xp_5_1 <= 5.22591086541641
 0 <= xp_6_0 <= 23.5165988943738
 0 <= xp_7_0 <= 22.5367406071083
 0 <= xp_8_0 <= 20.2504046034886
 0 <= xp_9_0 <= 18.7806171725902
 0 <= xp_10_0 <= 18.7806171725902
 0 <= xp_11_0 <= 27.1910946627144
 0 <= xp_11_1 <= 5.43821893254288
 0 <= xp_11_2 <= 10.8764378650858
 0 <= xp_11_3 <= 10.8764378650858
 0 <= xp_12_0 <= 17.6374491707804
 0 <= xp_13_0 <= 13.7180160217181
 0 <= xp_13_1 <= 3.42950400542952
 0 <= xp_14_0 <= 6.53238858177051
 0 <= xp_14_1 <= 9.79858287265576
 0 <= xp_15_0 <= 16.167661739882
 0 <= xp_16_0 <= 12.411538305364
 0 <= xp_16_1 <= 3.10288457634099
 0 <= xp_17_0 <= 27.240060385983
 0 <= xp_17_1 <= 3.64180119611813
 0 <= xp_17_2 <= 5.43821893254288
 0 <= xp_17_3 <= 5.43821893254288
 0 <= xp_17_4 <= 3.64180119611813
 0 <= xp_18_0 <= 25.0027336113834
 0 <= xp_18_1 <= 9.74957364363569
 0 <= xp_18_2 <= 5.43821893254288
 0 <= xp_18_3 <= 3.2498578812119
 0 <= xp_19_0 <= 28.0566198351422
 0 <= xp_19_1 <= 11.7419630375136
 0 <= xp_19_2 <= 3.15187205248534
 0 <= xp_20_0 <= 27.7300004060537
 0 <= xp_20_1 <= 8.42678127048396
 0 <= xp_20_2 <= 2.98856233794108
 0 <= xp_20_3 <= 2.98856233794108
 0 <= xp_21_0 <= 16.1349997969732
 0 <= xp_21_1 <= 5.2585619318874
 0 <= xp_21_2 <= 8.06749989848658
 0 <= xp_21_3 <= 10.8764378650858
 0 <= xp_22_0 <= 23.2226414081942
 0 <= xp_22_1 <= 2.30266153685517
 0 <= xp_22_2 <= 5.43821893254288
 0 <= xp_22_3 <= 5.43821893254288
 0 <= xp_22_4 <= 2.30266153685517
 0 <= xp_23_0 <= 26.3581988038819
 0 <= xp_23_1 <= 2.30266153685517
 0 <= xp_23_2 <= 2.30266153685517
 0 <= xp_23_3 <= 2.30266153685517
 0 <= xp_23_4 <= 5.43821893254288

End
